Keep 1 Angstroms of distance between 1° NN sites
1.0
        3.0000000000         0.0000000000         0.0000000000
        0.0000000000        20.0000000000         0.0000000000
        0.0000000000         0.0000000000        20.0000000000
   Ce
    3
Cartesian
     0.000000000         0.000000000         0.000000000
     1.000000000         0.000000000         0.000000000
     2.000000000         0.000000000         0.000000000
