Keep 1 Angstroms of distance between 1° NN sites
1.0
        10.0000000000         0.0000000000         0.0000000000
        0.0000000000        20.0000000000         0.0000000000
        0.0000000000         0.0000000000        20.0000000000
   Ce
    10
Cartesian
     0.000000000         0.000000000         0.000000000
     1.000000000         0.000000000         0.000000000
     2.000000000         0.000000000         0.000000000
     3.000000000         0.000000000         0.000000000
     4.000000000         0.000000000         0.000000000
     5.000000000         0.000000000         0.000000000
     6.000000000         0.000000000         0.000000000
     7.000000000         0.000000000         0.000000000
     8.000000000         0.000000000         0.000000000
     9.000000000         0.000000000         0.000000000