Keep 1 Angstroms of distance between 1° NN sites
1.0
        6.0000000000         0.0000000000         0.0000000000
        0.0000000000        20.0000000000         0.0000000000
        0.0000000000         0.0000000000        20.0000000000
   Ce
    6
Cartesian
     0.000000000         0.000000000         0.000000000
     1.000000000         0.000000000         0.000000000
     2.000000000         0.000000000         0.000000000
     3.000000000         0.000000000         0.000000000
     4.000000000         0.000000000         0.000000000
     5.000000000         0.000000000         0.000000000