Keep 1 Angstroms of distance between 1° NN sites
1.0
        4.0000000000         0.0000000000         0.0000000000
        0.0000000000        20.0000000000         0.0000000000
        0.0000000000         0.0000000000        20.0000000000
   Ce
    4
Direct
0.00 0.00 0.00
0.25 0.00 0.00
0.50 0.00 0.00
0.75 0.00 0.00
