Exemplary structure
2.0
        1.5000000000         0.0000000000         0.0000000000
        0.0000000000         3.0000000000         0.0000000000
        0.0000000000         0.5000000000         2.0000000000
   Ag
    2
Cartesian
     0.000000000         0.000000000         0.000000000
     1.000000000         0.000000000         0.000000000
