Exemplary structure
1.0
        2.0000000000         0.0000000000         0.0000000000
        0.0000000000         2.0000000000         0.0000000000
        0.0000000000         0.0000000000         2.0000000000
   Be   Ag
    2   2
Selective dynamics
Cartesian
     0.000000000         0.000000000         0.000000000 T T F
     0.500000000         0.000000000         0.000000000 T T F
     1.000000000         0.000000000         0.000000000 F F F
     1.500000000         0.000000000         0.000000000 T F T
