Exemplary structure
1.0
        2.0000000000         0.0000000000         0.0000000000
        0.0000000000         2.0000000000         0.0000000000
        0.0000000000         0.0000000000         2.0000000000
   Be   Ag
    2   2
Cartesian
     0.000000000         0.000000000         0.000000000
     0.500000000         0.000000000         0.000000000
     1.000000000         0.000000000         0.000000000
     