Exemplary structure
1.0
        2.0000000000         0.0000000000         0.0000000000
        0.0000000000        20.0000000000         0.0000000000
        0.0000000000         0.0000000000        20.0000000000
   Ag
    2
Cartesian
     0.000000000         0.000000000         0.000000000
     1.000000000         0.000000000         0.000000000
